;; Preprocessed for Astral solver
(set-info :status sat)
;; variables
(declare-const x0 Loc)
(declare-const x1 Loc)
(declare-const x2 Loc)
(declare-const x3 Loc)
(declare-const x4 Loc)
(declare-const x5 Loc)
(declare-const x6 Loc)
(declare-const x7 Loc)
(declare-const x8 Loc)
(declare-const x9 Loc)
(declare-const x10 Loc)
(declare-const x11 Loc)
(declare-const x12 Loc)
(declare-const x13 Loc)
(declare-const x14 Loc)
(declare-const x15 Loc)
(declare-const x16 Loc)
(declare-const x17 Loc)
(declare-const x18 Loc)
(declare-const x19 Loc)
(declare-const x20 Loc)
(declare-const x21 Loc)
(declare-const x22 Loc)

(assert 
		(sep 
			(= nil nil)
			(distinct x6 x8)
			(distinct x6 x9)
			(distinct x6 x13)
			(distinct x6 x17)
			(distinct x6 x12)
			(distinct x3 x6)
			(distinct x3 x4)
			(distinct x3 x18)
			(distinct x3 x13)
			(distinct x3 x17)
			(distinct x3 x5)
			(distinct x3 x15)
			(distinct x7 x11)
			(distinct x7 x16)
			(distinct x7 x15)
			(distinct x9 x16)
			(distinct x17 x18)
			(distinct x2 x8)
			(distinct x2 x11)
			(distinct x2 x18)
			(distinct x2 x3)
			(distinct x2 x10)
			(distinct x2 x16)
			(distinct x2 x5)
			(distinct x12 x13)
			(distinct x15 x16)
			(distinct x8 x11)
			(distinct x8 x10)
			(distinct x8 x15)
			(distinct x4 x18)
			(distinct x4 x9)
			(distinct x4 x14)
			(distinct x4 x15)
			(distinct x1 x8)
			(distinct x1 x11)
			(distinct x1 x18)
			(distinct x1 x15)
			(distinct x1 x5)
			(distinct x10 x18)
			(distinct x10 x15)
			(distinct x16 x17)
			(distinct x5 x6)
			(distinct x5 x16)
		(sep 
			(ls x5 x1 )
			(ls x10 x13 )
			(ls x10 x18 )
			(ls x18 x1 )
			(ls x15 x11 )
			(ls x14 x17 )
			(ls x12 x18 )
			(ls x9 x12 )
			(ls x7 x14 )
			(ls x7 x12 )
			(ls x6 x9 )
		)

		)

)

(check-sat)
